NAME: Li-31
BEST_KNOWN: 34330.84
COMMENT: 34330.840000
DIMENSION: 1121
CAPACITY: 2300
DISTANCE: 3500
EDGE_WEIGHT_FORMAT: FUNCTION
EDGE_WEIGHT_TYPE: EXACT_2D
NODE_COORD_SECTION
1 0.00000 0.00000
2 30.00000 0.00000
3 29.63070 4.69300
4 28.53170 9.27050
5 26.73020 13.61970
6 24.27050 17.63360
7 21.21320 21.21320
8 17.63360 24.27050
9 13.61970 26.73020
10 9.27050 28.53170
11 4.69300 29.63070
12 0.00000 30.00000
13 -4.69300 29.63070
14 -9.27050 28.53170
15 -13.61970 26.73020
16 -17.63360 24.27050
17 -21.21320 21.21320
18 -24.27050 17.63360
19 -26.73020 13.61970
20 -28.53170 9.27050
21 -29.63070 4.69300
22 -30.00000 0.00000
23 -29.63070 -4.69300
24 -28.53170 -9.27050
25 -26.73020 -13.61970
26 -24.27050 -17.63360
27 -21.21320 -21.21320
28 -17.63360 -24.27050
29 -13.61970 -26.73020
30 -9.27050 -28.53170
31 -4.69300 -29.63070
32 -0.00000 -30.00000
33 4.69300 -29.63070
34 9.27050 -28.53170
35 13.61970 -26.73020
36 17.63360 -24.27050
37 21.21320 -21.21320
38 24.27050 -17.63360
39 26.73020 -13.61970
40 28.53170 -9.27050
41 29.63070 -4.69300
42 60.00000 0.00000
43 59.26130 9.38610
44 57.06340 18.54100
45 53.46040 27.23940
46 48.54100 35.26710
47 42.42640 42.42640
48 35.26710 48.54100
49 27.23940 53.46040
50 18.54100 57.06340
51 9.38610 59.26130
52 0.00000 60.00000
53 -9.38610 59.26130
54 -18.54100 57.06340
55 -27.23940 53.46040
56 -35.26710 48.54100
57 -42.42640 42.42640
58 -48.54100 35.26710
59 -53.46040 27.23940
60 -57.06340 18.54100
61 -59.26130 9.38610
62 -60.00000 0.00000
63 -59.26130 -9.38610
64 -57.06340 -18.54100
65 -53.46040 -27.23940
66 -48.54100 -35.26710
67 -42.42640 -42.42640
68 -35.26710 -48.54100
69 -27.23940 -53.46040
70 -18.54100 -57.06340
71 -9.38610 -59.26130
72 -0.00000 -60.00000
73 9.38610 -59.26130
74 18.54100 -57.06340
75 27.23940 -53.46040
76 35.26710 -48.54100
77 42.42640 -42.42640
78 48.54100 -35.26710
79 53.46040 -27.23940
80 57.06340 -18.54100
81 59.26130 -9.38610
82 90.00000 0.00000
83 88.89200 14.07910
84 85.59510 27.81150
85 80.19060 40.85910
86 72.81150 52.90070
87 63.63960 63.63960
88 52.90070 72.81150
89 40.85910 80.19060
90 27.81150 85.59510
91 14.07910 88.89200
92 0.00000 90.00000
93 -14.07910 88.89200
94 -27.81150 85.59510
95 -40.85910 80.19060
96 -52.90070 72.81150
97 -63.63960 63.63960
98 -72.81150 52.90070
99 -80.19060 40.85910
100 -85.59510 27.81150
101 -88.89200 14.07910
102 -90.00000 0.00000
103 -88.89200 -14.07910
104 -85.59510 -27.81150
105 -80.19060 -40.85910
106 -72.81150 -52.90070
107 -63.63960 -63.63960
108 -52.90070 -72.81150
109 -40.85910 -80.19060
110 -27.81150 -85.59510
111 -14.07910 -88.89200
112 -0.00000 -90.00000
113 14.07910 -88.89200
114 27.81150 -85.59510
115 40.85910 -80.19060
116 52.90070 -72.81150
117 63.63960 -63.63960
118 72.81150 -52.90070
119 80.19060 -40.85910
120 85.59510 -27.81150
121 88.89200 -14.07910
122 120.00000 0.00000
123 118.52260 18.77210
124 114.12680 37.08200
125 106.92080 54.47890
126 97.08200 70.53420
127 84.85280 84.85280
128 70.53420 97.08200
129 54.47890 106.92080
130 37.08200 114.12680
131 18.77210 118.52260
132 0.00000 120.00000
133 -18.77210 118.52260
134 -37.08200 114.12680
135 -54.47890 106.92080
136 -70.53420 97.08200
137 -84.85280 84.85280
138 -97.08200 70.53420
139 -106.92080 54.47890
140 -114.12680 37.08200
141 -118.52260 18.77210
142 -120.00000 0.00000
143 -118.52260 -18.77210
144 -114.12680 -37.08200
145 -106.92080 -54.47890
146 -97.08200 -70.53420
147 -84.85280 -84.85280
148 -70.53420 -97.08200
149 -54.47890 -106.92080
150 -37.08200 -114.12680
151 -18.77210 -118.52260
152 -0.00000 -120.00000
153 18.77210 -118.52260
154 37.08200 -114.12680
155 54.47890 -106.92080
156 70.53420 -97.08200
157 84.85280 -84.85280
158 97.08200 -70.53420
159 106.92080 -54.47890
160 114.12680 -37.08200
161 118.52260 -18.77210
162 150.00000 0.00000
163 148.15331 23.46520
164 142.65849 46.35250
165 133.65100 68.09860
166 121.35250 88.16780
167 106.06600 106.06600
168 88.16780 121.35250
169 68.09860 133.65100
170 46.35250 142.65849
171 23.46520 148.15331
172 0.00000 150.00000
173 -23.46520 148.15331
174 -46.35250 142.65849
175 -68.09860 133.65100
176 -88.16780 121.35250
177 -106.06600 106.06600
178 -121.35250 88.16780
179 -133.65100 68.09860
180 -142.65849 46.35250
181 -148.15331 23.46520
182 -150.00000 0.00000
183 -148.15331 -23.46520
184 -142.65849 -46.35250
185 -133.65100 -68.09860
186 -121.35250 -88.16780
187 -106.06600 -106.06600
188 -88.16780 -121.35250
189 -68.09860 -133.65100
190 -46.35250 -142.65849
191 -23.46520 -148.15331
192 -0.00000 -150.00000
193 23.46520 -148.15331
194 46.35250 -142.65849
195 68.09860 -133.65100
196 88.16780 -121.35250
197 106.06600 -106.06600
198 121.35250 -88.16780
199 133.65100 -68.09860
200 142.65849 -46.35250
201 148.15331 -23.46520
202 180.00000 0.00000
203 177.78391 28.15820
204 171.19020 55.62310
205 160.38120 81.71830
206 145.62309 105.80130
207 127.27920 127.27920
208 105.80130 145.62309
209 81.71830 160.38120
210 55.62310 171.19020
211 28.15820 177.78391
212 0.00000 180.00000
213 -28.15820 177.78391
214 -55.62310 171.19020
215 -81.71830 160.38120
216 -105.80130 145.62309
217 -127.27920 127.27920
218 -145.62309 105.80130
219 -160.38120 81.71830
220 -171.19020 55.62310
221 -177.78391 28.15820
222 -180.00000 0.00000
223 -177.78391 -28.15820
224 -171.19020 -55.62310
225 -160.38120 -81.71830
226 -145.62309 -105.80130
227 -127.27920 -127.27920
228 -105.80130 -145.62309
229 -81.71830 -160.38120
230 -55.62310 -171.19020
231 -28.15820 -177.78391
232 -0.00000 -180.00000
233 28.15820 -177.78391
234 55.62310 -171.19020
235 81.71830 -160.38120
236 105.80130 -145.62309
237 127.27920 -127.27920
238 145.62309 -105.80130
239 160.38120 -81.71830
240 171.19020 -55.62310
241 177.78391 -28.15820
242 210.00000 0.00000
243 207.41460 32.85120
244 199.72189 64.89360
245 187.11140 95.33800
246 169.89360 123.43490
247 148.49240 148.49240
248 123.43490 169.89360
249 95.33800 187.11140
250 64.89360 199.72189
251 32.85120 207.41460
252 0.00000 210.00000
253 -32.85120 207.41460
254 -64.89360 199.72189
255 -95.33800 187.11140
256 -123.43490 169.89360
257 -148.49240 148.49240
258 -169.89360 123.43490
259 -187.11140 95.33800
260 -199.72189 64.89360
261 -207.41460 32.85120
262 -210.00000 0.00000
263 -207.41460 -32.85120
264 -199.72189 -64.89360
265 -187.11140 -95.33800
266 -169.89360 -123.43490
267 -148.49240 -148.49240
268 -123.43490 -169.89360
269 -95.33800 -187.11140
270 -64.89360 -199.72189
271 -32.85120 -207.41460
272 -0.00000 -210.00000
273 32.85120 -207.41460
274 64.89360 -199.72189
275 95.33800 -187.11140
276 123.43490 -169.89360
277 148.49240 -148.49240
278 169.89360 -123.43490
279 187.11140 -95.33800
280 199.72189 -64.89360
281 207.41460 -32.85120
282 240.00000 0.00000
283 237.04520 37.54430
284 228.25360 74.16410
285 213.84160 108.95770
286 194.16409 141.06850
287 169.70560 169.70560
288 141.06850 194.16409
289 108.95770 213.84160
290 74.16410 228.25360
291 37.54430 237.04520
292 0.00000 240.00000
293 -37.54430 237.04520
294 -74.16410 228.25360
295 -108.95770 213.84160
296 -141.06850 194.16409
297 -169.70560 169.70560
298 -194.16409 141.06850
299 -213.84160 108.95770
300 -228.25360 74.16410
301 -237.04520 37.54430
302 -240.00000 0.00000
303 -237.04520 -37.54430
304 -228.25360 -74.16410
305 -213.84160 -108.95770
306 -194.16409 -141.06850
307 -169.70560 -169.70560
308 -141.06850 -194.16409
309 -108.95770 -213.84160
310 -74.16410 -228.25360
311 -37.54430 -237.04520
312 -0.00000 -240.00000
313 37.54430 -237.04520
314 74.16410 -228.25360
315 108.95770 -213.84160
316 141.06850 -194.16409
317 169.70560 -169.70560
318 194.16409 -141.06850
319 213.84160 -108.95770
320 228.25360 -74.16410
321 237.04520 -37.54430
322 270.00000 0.00000
323 266.67590 42.23730
324 256.78531 83.43460
325 240.57179 122.57740
326 218.43460 158.70200
327 190.91879 190.91879
328 158.70200 218.43460
329 122.57740 240.57179
330 83.43460 256.78531
331 42.23730 266.67590
332 0.00000 270.00000
333 -42.23730 266.67590
334 -83.43460 256.78531
335 -122.57740 240.57179
336 -158.70200 218.43460
337 -190.91879 190.91879
338 -218.43460 158.70200
339 -240.57179 122.57740
340 -256.78531 83.43460
341 -266.67590 42.23730
342 -270.00000 0.00000
343 -266.67590 -42.23730
344 -256.78531 -83.43460
345 -240.57179 -122.57740
346 -218.43460 -158.70200
347 -190.91879 -190.91879
348 -158.70200 -218.43460
349 -122.57740 -240.57179
350 -83.43460 -256.78531
351 -42.23730 -266.67590
352 -0.00000 -270.00000
353 42.23730 -266.67590
354 83.43460 -256.78531
355 122.57740 -240.57179
356 158.70200 -218.43460
357 190.91879 -190.91879
358 218.43460 -158.70200
359 240.57179 -122.57740
360 256.78531 -83.43460
361 266.67590 -42.23730
362 300.00000 0.00000
363 296.30649 46.93030
364 285.31699 92.70510
365 267.30200 136.19710
366 242.70509 176.33560
367 212.13200 212.13200
368 176.33560 242.70509
369 136.19710 267.30200
370 92.70510 285.31699
371 46.93030 296.30649
372 0.00000 300.00000
373 -46.93030 296.30649
374 -92.70510 285.31699
375 -136.19710 267.30200
376 -176.33560 242.70509
377 -212.13200 212.13200
378 -242.70509 176.33560
379 -267.30200 136.19710
380 -285.31699 92.70510
381 -296.30649 46.93030
382 -300.00000 0.00000
383 -296.30649 -46.93030
384 -285.31699 -92.70510
385 -267.30200 -136.19710
386 -242.70509 -176.33560
387 -212.13200 -212.13200
388 -176.33560 -242.70509
389 -136.19710 -267.30200
390 -92.70510 -285.31699
391 -46.93030 -296.30649
392 -0.00000 -300.00000
393 46.93030 -296.30649
394 92.70510 -285.31699
395 136.19710 -267.30200
396 176.33560 -242.70509
397 212.13200 -212.13200
398 242.70509 -176.33560
399 267.30200 -136.19710
400 285.31699 -92.70510
401 296.30649 -46.93030
402 330.00000 0.00000
403 325.93719 51.62340
404 313.84869 101.97560
405 294.03220 149.81689
406 266.97559 193.96910
407 233.34520 233.34520
408 193.96910 266.97559
409 149.81689 294.03220
410 101.97560 313.84869
411 51.62340 325.93719
412 0.00000 330.00000
413 -51.62340 325.93719
414 -101.97560 313.84869
415 -149.81689 294.03220
416 -193.96910 266.97559
417 -233.34520 233.34520
418 -266.97559 193.96910
419 -294.03220 149.81689
420 -313.84869 101.97560
421 -325.93719 51.62340
422 -330.00000 0.00000
423 -325.93719 -51.62340
424 -313.84869 -101.97560
425 -294.03220 -149.81689
426 -266.97559 -193.96910
427 -233.34520 -233.34520
428 -193.96910 -266.97559
429 -149.81689 -294.03220
430 -101.97560 -313.84869
431 -51.62340 -325.93719
432 -0.00000 -330.00000
433 51.62340 -325.93719
434 101.97560 -313.84869
435 149.81689 -294.03220
436 193.96910 -266.97559
437 233.34520 -233.34520
438 266.97559 -193.96910
439 294.03220 -149.81689
440 313.84869 -101.97560
441 325.93719 -51.62340
442 360.00000 0.00000
443 355.56781 56.31640
444 342.38031 111.24610
445 320.76230 163.43660
446 291.24609 211.60271
447 254.55840 254.55840
448 211.60271 291.24609
449 163.43660 320.76230
450 111.24610 342.38031
451 56.31640 355.56781
452 0.00000 360.00000
453 -56.31640 355.56781
454 -111.24610 342.38031
455 -163.43660 320.76230
456 -211.60271 291.24609
457 -254.55840 254.55840
458 -291.24609 211.60271
459 -320.76230 163.43660
460 -342.38031 111.24610
461 -355.56781 56.31640
462 -360.00000 0.00000
463 -355.56781 -56.31640
464 -342.38031 -111.24610
465 -320.76230 -163.43660
466 -291.24609 -211.60271
467 -254.55840 -254.55840
468 -211.60271 -291.24609
469 -163.43660 -320.76230
470 -111.24610 -342.38031
471 -56.31640 -355.56781
472 -0.00000 -360.00000
473 56.31640 -355.56781
474 111.24610 -342.38031
475 163.43660 -320.76230
476 211.60271 -291.24609
477 254.55840 -254.55840
478 291.24609 -211.60271
479 320.76230 -163.43660
480 342.38031 -111.24610
481 355.56781 -56.31640
482 390.00000 0.00000
483 385.19849 61.00940
484 370.91199 120.51660
485 347.49249 177.05630
486 315.51660 229.23621
487 275.77161 275.77161
488 229.23621 315.51660
489 177.05630 347.49249
490 120.51660 370.91199
491 61.00940 385.19849
492 0.00000 390.00000
493 -61.00940 385.19849
494 -120.51660 370.91199
495 -177.05630 347.49249
496 -229.23621 315.51660
497 -275.77161 275.77161
498 -315.51660 229.23621
499 -347.49249 177.05630
500 -370.91199 120.51660
501 -385.19849 61.00940
502 -390.00000 0.00000
503 -385.19849 -61.00940
504 -370.91199 -120.51660
505 -347.49249 -177.05630
506 -315.51660 -229.23621
507 -275.77161 -275.77161
508 -229.23621 -315.51660
509 -177.05630 -347.49249
510 -120.51660 -370.91199
511 -61.00940 -385.19849
512 -0.00000 -390.00000
513 61.00940 -385.19849
514 120.51660 -370.91199
515 177.05630 -347.49249
516 229.23621 -315.51660
517 275.77161 -275.77161
518 315.51660 -229.23621
519 347.49249 -177.05630
520 370.91199 -120.51660
521 385.19849 -61.00940
522 420.00000 0.00000
523 414.82910 65.70250
524 399.44370 129.78709
525 374.22269 190.67599
526 339.78711 246.86980
527 296.98480 296.98480
528 246.86980 339.78711
529 190.67599 374.22269
530 129.78709 399.44370
531 65.70250 414.82910
532 0.00000 420.00000
533 -65.70250 414.82910
534 -129.78709 399.44370
535 -190.67599 374.22269
536 -246.86980 339.78711
537 -296.98480 296.98480
538 -339.78711 246.86980
539 -374.22269 190.67599
540 -399.44370 129.78709
541 -414.82910 65.70250
542 -420.00000 0.00000
543 -414.82910 -65.70250
544 -399.44370 -129.78709
545 -374.22269 -190.67599
546 -339.78711 -246.86980
547 -296.98480 -296.98480
548 -246.86980 -339.78711
549 -190.67599 -374.22269
550 -129.78709 -399.44370
551 -65.70250 -414.82910
552 -0.00000 -420.00000
553 65.70250 -414.82910
554 129.78709 -399.44370
555 190.67599 -374.22269
556 246.86980 -339.78711
557 296.98480 -296.98480
558 339.78711 -246.86980
559 374.22269 -190.67599
560 399.44370 -129.78709
561 414.82910 -65.70250
562 450.00000 0.00000
563 444.45981 70.39550
564 427.97540 139.05760
565 400.95291 204.29570
566 364.05759 264.50339
567 318.19809 318.19809
568 264.50339 364.05759
569 204.29570 400.95291
570 139.05760 427.97540
571 70.39550 444.45981
572 0.00000 450.00000
573 -70.39550 444.45981
574 -139.05760 427.97540
575 -204.29570 400.95291
576 -264.50339 364.05759
577 -318.19809 318.19809
578 -364.05759 264.50339
579 -400.95291 204.29570
580 -427.97540 139.05760
581 -444.45981 70.39550
582 -450.00000 0.00000
583 -444.45981 -70.39550
584 -427.97540 -139.05760
585 -400.95291 -204.29570
586 -364.05759 -264.50339
587 -318.19809 -318.19809
588 -264.50339 -364.05759
589 -204.29570 -400.95291
590 -139.05760 -427.97540
591 -70.39550 -444.45981
592 -0.00000 -450.00000
593 70.39550 -444.45981
594 139.05760 -427.97540
595 204.29570 -400.95291
596 264.50339 -364.05759
597 318.19809 -318.19809
598 364.05759 -264.50339
599 400.95291 -204.29570
600 427.97540 -139.05760
601 444.45981 -70.39550
602 480.00000 0.00000
603 474.09039 75.08850
604 456.50711 148.32820
605 427.68311 217.91541
606 388.32819 282.13690
607 339.41129 339.41129
608 282.13690 388.32819
609 217.91541 427.68311
610 148.32820 456.50711
611 75.08850 474.09039
612 0.00000 480.00000
613 -75.08850 474.09039
614 -148.32820 456.50711
615 -217.91541 427.68311
616 -282.13690 388.32819
617 -339.41129 339.41129
618 -388.32819 282.13690
619 -427.68311 217.91541
620 -456.50711 148.32820
621 -474.09039 75.08850
622 -480.00000 0.00000
623 -474.09039 -75.08850
624 -456.50711 -148.32820
625 -427.68311 -217.91541
626 -388.32819 -282.13690
627 -339.41129 -339.41129
628 -282.13690 -388.32819
629 -217.91541 -427.68311
630 -148.32820 -456.50711
631 -75.08850 -474.09039
632 -0.00000 -480.00000
633 75.08850 -474.09039
634 148.32820 -456.50711
635 217.91541 -427.68311
636 282.13690 -388.32819
637 339.41129 -339.41129
638 388.32819 -282.13690
639 427.68311 -217.91541
640 456.50711 -148.32820
641 474.09039 -75.08850
642 510.00000 0.00000
643 503.72110 79.78160
644 485.03879 157.59869
645 454.41330 231.53520
646 412.59869 299.77051
647 360.62451 360.62451
648 299.77051 412.59869
649 231.53520 454.41330
650 157.59869 485.03879
651 79.78160 503.72110
652 0.00000 510.00000
653 -79.78160 503.72110
654 -157.59869 485.03879
655 -231.53520 454.41330
656 -299.77051 412.59869
657 -360.62451 360.62451
658 -412.59869 299.77051
659 -454.41330 231.53520
660 -485.03879 157.59869
661 -503.72110 79.78160
662 -510.00000 0.00000
663 -503.72110 -79.78160
664 -485.03879 -157.59869
665 -454.41330 -231.53520
666 -412.59869 -299.77051
667 -360.62451 -360.62451
668 -299.77051 -412.59869
669 -231.53520 -454.41330
670 -157.59869 -485.03879
671 -79.78160 -503.72110
672 -0.00000 -510.00000
673 79.78160 -503.72110
674 157.59869 -485.03879
675 231.53520 -454.41330
676 299.77051 -412.59869
677 360.62451 -360.62451
678 412.59869 -299.77051
679 454.41330 -231.53520
680 485.03879 -157.59869
681 503.72110 -79.78160
682 540.00000 0.00000
683 533.35168 84.47460
684 513.57050 166.86920
685 481.14349 245.15491
686 436.86920 317.40399
687 381.83771 381.83771
688 317.40399 436.86920
689 245.15491 481.14349
690 166.86920 513.57050
691 84.47460 533.35168
692 0.00000 540.00000
693 -84.47460 533.35168
694 -166.86920 513.57050
695 -245.15491 481.14349
696 -317.40399 436.86920
697 -381.83771 381.83771
698 -436.86920 317.40399
699 -481.14349 245.15491
700 -513.57050 166.86920
701 -533.35168 84.47460
702 -540.00000 0.00000
703 -533.35168 -84.47460
704 -513.57050 -166.86920
705 -481.14349 -245.15491
706 -436.86920 -317.40399
707 -381.83771 -381.83771
708 -317.40399 -436.86920
709 -245.15491 -481.14349
710 -166.86920 -513.57050
711 -84.47460 -533.35168
712 -0.00000 -540.00000
713 84.47460 -533.35168
714 166.86920 -513.57050
715 245.15491 -481.14349
716 317.40399 -436.86920
717 381.83771 -381.83771
718 436.86920 -317.40399
719 481.14349 -245.15491
720 513.57050 -166.86920
721 533.35168 -84.47460
722 570.00000 0.00000
723 562.98242 89.16760
724 542.10217 176.13969
725 507.87369 258.77460
726 461.13971 335.03760
727 403.05090 403.05090
728 335.03760 461.13971
729 258.77460 507.87369
730 176.13969 542.10217
731 89.16760 562.98242
732 0.00000 570.00000
733 -89.16760 562.98242
734 -176.13969 542.10217
735 -258.77460 507.87369
736 -335.03760 461.13971
737 -403.05090 403.05090
738 -461.13971 335.03760
739 -507.87369 258.77460
740 -542.10217 176.13969
741 -562.98242 89.16760
742 -570.00000 0.00000
743 -562.98242 -89.16760
744 -542.10217 -176.13969
745 -507.87369 -258.77460
746 -461.13971 -335.03760
747 -403.05090 -403.05090
748 -335.03760 -461.13971
749 -258.77460 -507.87369
750 -176.13969 -542.10217
751 -89.16760 -562.98242
752 -0.00000 -570.00000
753 89.16760 -562.98242
754 176.13969 -542.10217
755 258.77460 -507.87369
756 335.03760 -461.13971
757 403.05090 -403.05090
758 461.13971 -335.03760
759 507.87369 -258.77460
760 542.10217 -176.13969
761 562.98242 -89.16760
762 600.00000 0.00000
763 592.61298 93.86070
764 570.63391 185.41020
765 534.60388 272.39429
766 485.41019 352.67120
767 424.26410 424.26410
768 352.67120 485.41019
769 272.39429 534.60388
770 185.41020 570.63391
771 93.86070 592.61298
772 0.00000 600.00000
773 -93.86070 592.61298
774 -185.41020 570.63391
775 -272.39429 534.60388
776 -352.67120 485.41019
777 -424.26410 424.26410
778 -485.41019 352.67120
779 -534.60388 272.39429
780 -570.63391 185.41020
781 -592.61298 93.86070
782 -600.00000 0.00000
783 -592.61298 -93.86070
784 -570.63391 -185.41020
785 -534.60388 -272.39429
786 -485.41019 -352.67120
787 -424.26410 -424.26410
788 -352.67120 -485.41019
789 -272.39429 -534.60388
790 -185.41020 -570.63391
791 -93.86070 -592.61298
792 -0.00000 -600.00000
793 93.86070 -592.61298
794 185.41020 -570.63391
795 272.39429 -534.60388
796 352.67120 -485.41019
797 424.26410 -424.26410
798 485.41019 -352.67120
799 534.60388 -272.39429
800 570.63391 -185.41020
801 592.61298 -93.86070
802 630.00000 0.00000
803 622.24371 98.55370
804 599.16559 194.68069
805 561.33411 286.01401
806 509.68069 370.30469
807 445.47729 445.47729
808 370.30469 509.68069
809 286.01401 561.33411
810 194.68069 599.16559
811 98.55370 622.24371
812 0.00000 630.00000
813 -98.55370 622.24371
814 -194.68069 599.16559
815 -286.01401 561.33411
816 -370.30469 509.68069
817 -445.47729 445.47729
818 -509.68069 370.30469
819 -561.33411 286.01401
820 -599.16559 194.68069
821 -622.24371 98.55370
822 -630.00000 0.00000
823 -622.24371 -98.55370
824 -599.16559 -194.68069
825 -561.33411 -286.01401
826 -509.68069 -370.30469
827 -445.47729 -445.47729
828 -370.30469 -509.68069
829 -286.01401 -561.33411
830 -194.68069 -599.16559
831 -98.55370 -622.24371
832 -0.00000 -630.00000
833 98.55370 -622.24371
834 194.68069 -599.16559
835 286.01401 -561.33411
836 370.30469 -509.68069
837 445.47729 -445.47729
838 509.68069 -370.30469
839 561.33411 -286.01401
840 599.16559 -194.68069
841 622.24371 -98.55370
842 660.00000 0.00000
843 651.87433 103.24670
844 627.69733 203.95120
845 588.06427 299.63370
846 533.95117 387.93829
847 466.69049 466.69049
848 387.93829 533.95117
849 299.63370 588.06427
850 203.95120 627.69733
851 103.24670 651.87433
852 0.00000 660.00000
853 -103.24670 651.87433
854 -203.95120 627.69733
855 -299.63370 588.06427
856 -387.93829 533.95117
857 -466.69049 466.69049
858 -533.95117 387.93829
859 -588.06427 299.63370
860 -627.69733 203.95120
861 -651.87433 103.24670
862 -660.00000 0.00000
863 -651.87433 -103.24670
864 -627.69733 -203.95120
865 -588.06427 -299.63370
866 -533.95117 -387.93829
867 -466.69049 -466.69049
868 -387.93829 -533.95117
869 -299.63370 -588.06427
870 -203.95120 -627.69733
871 -103.24670 -651.87433
872 -0.00000 -660.00000
873 103.24670 -651.87433
874 203.95120 -627.69733
875 299.63370 -588.06427
876 387.93829 -533.95117
877 466.69049 -466.69049
878 533.95117 -387.93829
879 588.06427 -299.63370
880 627.69733 -203.95120
881 651.87433 -103.24670
882 690.00000 0.00000
883 681.50500 107.93980
884 656.22900 213.22169
885 614.79449 313.25339
886 558.22168 405.57181
887 487.90369 487.90369
888 405.57181 558.22168
889 313.25339 614.79449
890 213.22169 656.22900
891 107.93980 681.50500
892 0.00000 690.00000
893 -107.93980 681.50500
894 -213.22169 656.22900
895 -313.25339 614.79449
896 -405.57181 558.22168
897 -487.90369 487.90369
898 -558.22168 405.57181
899 -614.79449 313.25339
900 -656.22900 213.22169
901 -681.50500 107.93980
902 -690.00000 0.00000
903 -681.50500 -107.93980
904 -656.22900 -213.22169
905 -614.79449 -313.25339
906 -558.22168 -405.57181
907 -487.90369 -487.90369
908 -405.57181 -558.22168
909 -313.25339 -614.79449
910 -213.22169 -656.22900
911 -107.93980 -681.50500
912 -0.00000 -690.00000
913 107.93980 -681.50500
914 213.22169 -656.22900
915 313.25339 -614.79449
916 405.57181 -558.22168
917 487.90369 -487.90369
918 558.22168 -405.57181
919 614.79449 -313.25339
920 656.22900 -213.22169
921 681.50500 -107.93980
922 720.00000 0.00000
923 711.13562 112.63280
924 684.76068 222.49220
925 641.52472 326.87320
926 582.49219 423.20541
927 509.11691 509.11691
928 423.20541 582.49219
929 326.87320 641.52472
930 222.49220 684.76068
931 112.63280 711.13562
932 0.00000 720.00000
933 -112.63280 711.13562
934 -222.49220 684.76068
935 -326.87320 641.52472
936 -423.20541 582.49219
937 -509.11691 509.11691
938 -582.49219 423.20541
939 -641.52472 326.87320
940 -684.76068 222.49220
941 -711.13562 112.63280
942 -720.00000 0.00000
943 -711.13562 -112.63280
944 -684.76068 -222.49220
945 -641.52472 -326.87320
946 -582.49219 -423.20541
947 -509.11691 -509.11691
948 -423.20541 -582.49219
949 -326.87320 -641.52472
950 -222.49220 -684.76068
951 -112.63280 -711.13562
952 -0.00000 -720.00000
953 112.63280 -711.13562
954 222.49220 -684.76068
955 326.87320 -641.52472
956 423.20541 -582.49219
957 509.11691 -509.11691
958 582.49219 -423.20541
959 641.52472 -326.87320
960 684.76068 -222.49220
961 711.13562 -112.63280
962 750.00000 0.00000
963 740.76630 117.32580
964 713.29242 231.76270
965 668.25488 340.49289
966 606.76270 440.83890
967 530.33008 530.33008
968 440.83890 606.76270
969 340.49289 668.25488
970 231.76270 713.29242
971 117.32580 740.76630
972 0.00000 750.00000
973 -117.32580 740.76630
974 -231.76270 713.29242
975 -340.49289 668.25488
976 -440.83890 606.76270
977 -530.33008 530.33008
978 -606.76270 440.83890
979 -668.25488 340.49289
980 -713.29242 231.76270
981 -740.76630 117.32580
982 -750.00000 0.00000
983 -740.76630 -117.32580
984 -713.29242 -231.76270
985 -668.25488 -340.49289
986 -606.76270 -440.83890
987 -530.33008 -530.33008
988 -440.83890 -606.76270
989 -340.49289 -668.25488
990 -231.76270 -713.29242
991 -117.32580 -740.76630
992 -0.00000 -750.00000
993 117.32580 -740.76630
994 231.76270 -713.29242
995 340.49289 -668.25488
996 440.83890 -606.76270
997 530.33008 -530.33008
998 606.76270 -440.83890
999 668.25488 -340.49289
1000 713.29242 -231.76270
1001 740.76630 -117.32580
1002 780.00000 0.00000
1003 770.39691 122.01890
1004 741.82410 241.03329
1005 694.98511 354.11261
1006 631.03333 458.47250
1007 551.54327 551.54327
1008 458.47250 631.03333
1009 354.11261 694.98511
1010 241.03329 741.82410
1011 122.01890 770.39691
1012 0.00000 780.00000
1013 -122.01890 770.39691
1014 -241.03329 741.82410
1015 -354.11261 694.98511
1016 -458.47250 631.03333
1017 -551.54327 551.54327
1018 -631.03333 458.47250
1019 -694.98511 354.11261
1020 -741.82410 241.03329
1021 -770.39691 122.01890
1022 -780.00000 0.00000
1023 -770.39691 -122.01890
1024 -741.82410 -241.03329
1025 -694.98511 -354.11261
1026 -631.03333 -458.47250
1027 -551.54327 -551.54327
1028 -458.47250 -631.03333
1029 -354.11261 -694.98511
1030 -241.03329 -741.82410
1031 -122.01890 -770.39691
1032 -0.00000 -780.00000
1033 122.01890 -770.39691
1034 241.03329 -741.82410
1035 354.11261 -694.98511
1036 458.47250 -631.03333
1037 551.54327 -551.54327
1038 631.03333 -458.47250
1039 694.98511 -354.11261
1040 741.82410 -241.03329
1041 770.39691 -122.01890
1042 810.00000 0.00000
1043 800.02759 126.71190
1044 770.35577 250.30380
1045 721.71527 367.73230
1046 655.30377 476.10611
1047 572.75647 572.75647
1048 476.10611 655.30377
1049 367.73230 721.71527
1050 250.30380 770.35577
1051 126.71190 800.02759
1052 0.00000 810.00000
1053 -126.71190 800.02759
1054 -250.30380 770.35577
1055 -367.73230 721.71527
1056 -476.10611 655.30377
1057 -572.75647 572.75647
1058 -655.30377 476.10611
1059 -721.71527 367.73230
1060 -770.35577 250.30380
1061 -800.02759 126.71190
1062 -810.00000 0.00000
1063 -800.02759 -126.71190
1064 -770.35577 -250.30380
1065 -721.71527 -367.73230
1066 -655.30377 -476.10611
1067 -572.75647 -572.75647
1068 -476.10611 -655.30377
1069 -367.73230 -721.71527
1070 -250.30380 -770.35577
1071 -126.71190 -800.02759
1072 -0.00000 -810.00000
1073 126.71190 -800.02759
1074 250.30380 -770.35577
1075 367.73230 -721.71527
1076 476.10611 -655.30377
1077 572.75647 -572.75647
1078 655.30377 -476.10611
1079 721.71527 -367.73230
1080 770.35577 -250.30380
1081 800.02759 -126.71190
1082 840.00000 0.00000
1083 829.65820 131.40500
1084 798.88751 259.57431
1085 748.44550 381.35199
1086 679.57428 493.73959
1087 593.96973 593.96973
1088 493.73959 679.57428
1089 381.35199 748.44550
1090 259.57431 798.88751
1091 131.40500 829.65820
1092 0.00000 840.00000
1093 -131.40500 829.65820
1094 -259.57431 798.88751
1095 -381.35199 748.44550
1096 -493.73959 679.57428
1097 -593.96973 593.96973
1098 -679.57428 493.73959
1099 -748.44550 381.35199
1100 -798.88751 259.57431
1101 -829.65820 131.40500
1102 -840.00000 0.00000
1103 -829.65820 -131.40500
1104 -798.88751 -259.57431
1105 -748.44550 -381.35199
1106 -679.57428 -493.73959
1107 -593.96973 -593.96973
1108 -493.73959 -679.57428
1109 -381.35199 -748.44550
1110 -259.57431 -798.88751
1111 -131.40500 -829.65820
1112 -0.00000 -840.00000
1113 131.40500 -829.65820
1114 259.57431 -798.88751
1115 381.35199 -748.44550
1116 493.73959 -679.57428
1117 593.96973 -593.96973
1118 679.57428 -493.73959
1119 748.44550 -381.35199
1120 798.88751 -259.57431
1121 829.65820 -131.40500
DEMAND_SECTION
1 0
2 10
3 30
4 30
5 10
6 10
7 30
8 30
9 10
10 10
11 30
12 30
13 10
14 10
15 30
16 30
17 10
18 10
19 30
20 30
21 10
22 10
23 30
24 30
25 10
26 10
27 30
28 30
29 10
30 10
31 30
32 30
33 10
34 10
35 30
36 30
37 10
38 10
39 30
40 30
41 10
42 10
43 30
44 30
45 10
46 10
47 30
48 30
49 10
50 10
51 30
52 30
53 10
54 10
55 30
56 30
57 10
58 10
59 30
60 30
61 10
62 10
63 30
64 30
65 10
66 10
67 30
68 30
69 10
70 10
71 30
72 30
73 10
74 10
75 30
76 30
77 10
78 10
79 30
80 30
81 10
82 10
83 30
84 30
85 10
86 10
87 30
88 30
89 10
90 10
91 30
92 30
93 10
94 10
95 30
96 30
97 10
98 10
99 30
100 30
101 10
102 10
103 30
104 30
105 10
106 10
107 30
108 30
109 10
110 10
111 30
112 30
113 10
114 10
115 30
116 30
117 10
118 10
119 30
120 30
121 10
122 10
123 30
124 30
125 10
126 10
127 30
128 30
129 10
130 10
131 30
132 30
133 10
134 10
135 30
136 30
137 10
138 10
139 30
140 30
141 10
142 10
143 30
144 30
145 10
146 10
147 30
148 30
149 10
150 10
151 30
152 30
153 10
154 10
155 30
156 30
157 10
158 10
159 30
160 30
161 10
162 10
163 30
164 30
165 10
166 10
167 30
168 30
169 10
170 10
171 30
172 30
173 10
174 10
175 30
176 30
177 10
178 10
179 30
180 30
181 10
182 10
183 30
184 30
185 10
186 10
187 30
188 30
189 10
190 10
191 30
192 30
193 10
194 10
195 30
196 30
197 10
198 10
199 30
200 30
201 10
202 10
203 30
204 30
205 10
206 10
207 30
208 30
209 10
210 10
211 30
212 30
213 10
214 10
215 30
216 30
217 10
218 10
219 30
220 30
221 10
222 10
223 30
224 30
225 10
226 10
227 30
228 30
229 10
230 10
231 30
232 30
233 10
234 10
235 30
236 30
237 10
238 10
239 30
240 30
241 10
242 10
243 30
244 30
245 10
246 10
247 30
248 30
249 10
250 10
251 30
252 30
253 10
254 10
255 30
256 30
257 10
258 10
259 30
260 30
261 10
262 10
263 30
264 30
265 10
266 10
267 30
268 30
269 10
270 10
271 30
272 30
273 10
274 10
275 30
276 30
277 10
278 10
279 30
280 30
281 10
282 10
283 30
284 30
285 10
286 10
287 30
288 30
289 10
290 10
291 30
292 30
293 10
294 10
295 30
296 30
297 10
298 10
299 30
300 30
301 10
302 10
303 30
304 30
305 10
306 10
307 30
308 30
309 10
310 10
311 30
312 30
313 10
314 10
315 30
316 30
317 10
318 10
319 30
320 30
321 10
322 10
323 30
324 30
325 10
326 10
327 30
328 30
329 10
330 10
331 30
332 30
333 10
334 10
335 30
336 30
337 10
338 10
339 30
340 30
341 10
342 10
343 30
344 30
345 10
346 10
347 30
348 30
349 10
350 10
351 30
352 30
353 10
354 10
355 30
356 30
357 10
358 10
359 30
360 30
361 10
362 10
363 30
364 30
365 10
366 10
367 30
368 30
369 10
370 10
371 30
372 30
373 10
374 10
375 30
376 30
377 10
378 10
379 30
380 30
381 10
382 10
383 30
384 30
385 10
386 10
387 30
388 30
389 10
390 10
391 30
392 30
393 10
394 10
395 30
396 30
397 10
398 10
399 30
400 30
401 10
402 10
403 30
404 30
405 10
406 10
407 30
408 30
409 10
410 10
411 30
412 30
413 10
414 10
415 30
416 30
417 10
418 10
419 30
420 30
421 10
422 10
423 30
424 30
425 10
426 10
427 30
428 30
429 10
430 10
431 30
432 30
433 10
434 10
435 30
436 30
437 10
438 10
439 30
440 30
441 10
442 10
443 30
444 30
445 10
446 10
447 30
448 30
449 10
450 10
451 30
452 30
453 10
454 10
455 30
456 30
457 10
458 10
459 30
460 30
461 10
462 10
463 30
464 30
465 10
466 10
467 30
468 30
469 10
470 10
471 30
472 30
473 10
474 10
475 30
476 30
477 10
478 10
479 30
480 30
481 10
482 10
483 30
484 30
485 10
486 10
487 30
488 30
489 10
490 10
491 30
492 30
493 10
494 10
495 30
496 30
497 10
498 10
499 30
500 30
501 10
502 10
503 30
504 30
505 10
506 10
507 30
508 30
509 10
510 10
511 30
512 30
513 10
514 10
515 30
516 30
517 10
518 10
519 30
520 30
521 10
522 10
523 30
524 30
525 10
526 10
527 30
528 30
529 10
530 10
531 30
532 30
533 10
534 10
535 30
536 30
537 10
538 10
539 30
540 30
541 10
542 10
543 30
544 30
545 10
546 10
547 30
548 30
549 10
550 10
551 30
552 30
553 10
554 10
555 30
556 30
557 10
558 10
559 30
560 30
561 10
562 10
563 30
564 30
565 10
566 10
567 30
568 30
569 10
570 10
571 30
572 30
573 10
574 10
575 30
576 30
577 10
578 10
579 30
580 30
581 10
582 10
583 30
584 30
585 10
586 10
587 30
588 30
589 10
590 10
591 30
592 30
593 10
594 10
595 30
596 30
597 10
598 10
599 30
600 30
601 10
602 10
603 30
604 30
605 10
606 10
607 30
608 30
609 10
610 10
611 30
612 30
613 10
614 10
615 30
616 30
617 10
618 10
619 30
620 30
621 10
622 10
623 30
624 30
625 10
626 10
627 30
628 30
629 10
630 10
631 30
632 30
633 10
634 10
635 30
636 30
637 10
638 10
639 30
640 30
641 10
642 10
643 30
644 30
645 10
646 10
647 30
648 30
649 10
650 10
651 30
652 30
653 10
654 10
655 30
656 30
657 10
658 10
659 30
660 30
661 10
662 10
663 30
664 30
665 10
666 10
667 30
668 30
669 10
670 10
671 30
672 30
673 10
674 10
675 30
676 30
677 10
678 10
679 30
680 30
681 10
682 10
683 30
684 30
685 10
686 10
687 30
688 30
689 10
690 10
691 30
692 30
693 10
694 10
695 30
696 30
697 10
698 10
699 30
700 30
701 10
702 10
703 30
704 30
705 10
706 10
707 30
708 30
709 10
710 10
711 30
712 30
713 10
714 10
715 30
716 30
717 10
718 10
719 30
720 30
721 10
722 10
723 30
724 30
725 10
726 10
727 30
728 30
729 10
730 10
731 30
732 30
733 10
734 10
735 30
736 30
737 10
738 10
739 30
740 30
741 10
742 10
743 30
744 30
745 10
746 10
747 30
748 30
749 10
750 10
751 30
752 30
753 10
754 10
755 30
756 30
757 10
758 10
759 30
760 30
761 10
762 10
763 30
764 30
765 10
766 10
767 30
768 30
769 10
770 10
771 30
772 30
773 10
774 10
775 30
776 30
777 10
778 10
779 30
780 30
781 10
782 10
783 30
784 30
785 10
786 10
787 30
788 30
789 10
790 10
791 30
792 30
793 10
794 10
795 30
796 30
797 10
798 10
799 30
800 30
801 10
802 10
803 30
804 30
805 10
806 10
807 30
808 30
809 10
810 10
811 30
812 30
813 10
814 10
815 30
816 30
817 10
818 10
819 30
820 30
821 10
822 10
823 30
824 30
825 10
826 10
827 30
828 30
829 10
830 10
831 30
832 30
833 10
834 10
835 30
836 30
837 10
838 10
839 30
840 30
841 10
842 10
843 30
844 30
845 10
846 10
847 30
848 30
849 10
850 10
851 30
852 30
853 10
854 10
855 30
856 30
857 10
858 10
859 30
860 30
861 10
862 10
863 30
864 30
865 10
866 10
867 30
868 30
869 10
870 10
871 30
872 30
873 10
874 10
875 30
876 30
877 10
878 10
879 30
880 30
881 10
882 10
883 30
884 30
885 10
886 10
887 30
888 30
889 10
890 10
891 30
892 30
893 10
894 10
895 30
896 30
897 10
898 10
899 30
900 30
901 10
902 10
903 30
904 30
905 10
906 10
907 30
908 30
909 10
910 10
911 30
912 30
913 10
914 10
915 30
916 30
917 10
918 10
919 30
920 30
921 10
922 10
923 30
924 30
925 10
926 10
927 30
928 30
929 10
930 10
931 30
932 30
933 10
934 10
935 30
936 30
937 10
938 10
939 30
940 30
941 10
942 10
943 30
944 30
945 10
946 10
947 30
948 30
949 10
950 10
951 30
952 30
953 10
954 10
955 30
956 30
957 10
958 10
959 30
960 30
961 10
962 10
963 30
964 30
965 10
966 10
967 30
968 30
969 10
970 10
971 30
972 30
973 10
974 10
975 30
976 30
977 10
978 10
979 30
980 30
981 10
982 10
983 30
984 30
985 10
986 10
987 30
988 30
989 10
990 10
991 30
992 30
993 10
994 10
995 30
996 30
997 10
998 10
999 30
1000 30
1001 10
1002 10
1003 30
1004 30
1005 10
1006 10
1007 30
1008 30
1009 10
1010 10
1011 30
1012 30
1013 10
1014 10
1015 30
1016 30
1017 10
1018 10
1019 30
1020 30
1021 10
1022 10
1023 30
1024 30
1025 10
1026 10
1027 30
1028 30
1029 10
1030 10
1031 30
1032 30
1033 10
1034 10
1035 30
1036 30
1037 10
1038 10
1039 30
1040 30
1041 10
1042 10
1043 30
1044 30
1045 10
1046 10
1047 30
1048 30
1049 10
1050 10
1051 30
1052 30
1053 10
1054 10
1055 30
1056 30
1057 10
1058 10
1059 30
1060 30
1061 10
1062 10
1063 30
1064 30
1065 10
1066 10
1067 30
1068 30
1069 10
1070 10
1071 30
1072 30
1073 10
1074 10
1075 30
1076 30
1077 10
1078 10
1079 30
1080 30
1081 10
1082 10
1083 30
1084 30
1085 10
1086 10
1087 30
1088 30
1089 10
1090 10
1091 30
1092 30
1093 10
1094 10
1095 30
1096 30
1097 10
1098 10
1099 30
1100 30
1101 10
1102 10
1103 30
1104 30
1105 10
1106 10
1107 30
1108 30
1109 10
1110 10
1111 30
1112 30
1113 10
1114 10
1115 30
1116 30
1117 10
1118 10
1119 30
1120 30
1121 10
DEPOT_SECTION
1
-1
EOF
